x low 7.00
p edge 7 21
n 102 1.00
n 103 1.00
n 101 1.00
n 100 1.00
n 99 1.00
n 96 1.00
n 95 1.00
e 102 103
e 101 103
e 101 102
e 100 103
e 100 102
e 100 101
e 99 103
e 99 102
e 99 101
e 99 100
e 96 103
e 96 101
e 96 100
e 96 99
e 95 103
e 95 102
e 95 100
e 95 99
e 95 96
e 101 95
e 102 96
